; benchmark generated from python API
(set-info :status unknown)
(declare-fun x_month () Int)
(declare-fun x_day () Int)
(declare-fun x_year () Int)
(assert
 (>= x_month 1))
(assert
 (<= x_month 12))
(assert
 (>= x_day 1))
(assert
 (<= x_day 31))
(assert
 (let (($x146 (<= x_day 28)))
 (let (($x134 (<= x_day 29)))
 (let (($x144 (= (mod x_year 400) 0)))
 (let (($x481 (= (mod x_year 4) 0)))
 (let (($x558 (ite (or (and $x481 (and (distinct (mod x_year 100) 0) true)) $x144) $x134 $x146)))
 (let (($x41 (= x_month 2)))
 (ite $x41 $x558 true))))))))
(assert
 (let (($x451 (<= x_day 30)))
 (let (($x149 (or (= x_month 4) (= x_month 6) (= x_month 9) (= x_month 11))))
 (ite $x149 $x451 true))))
(assert
 (let (($x186 (= x_year 2023)))
 (let (($x446 (and $x186 (or (> x_month 1) (and (= x_month 1) (>= x_day 31))))))
 (or (> x_year 2023) $x446))))
(assert
 (let ((?x49 (+ (mod (- (+ x_month (+ (* 0 12) 1)) 1) 12) 1)))
(let ((?x464 (ite (or (= ?x49 4) (= ?x49 6) (= ?x49 9) (= ?x49 11)) 30 31)))
(let ((?x562 (+ 0 (div (- (+ x_month (+ (* 0 12) 1)) 1) 12))))
(let ((?x302 (+ x_year ?x562)))
(let (($x637 (or (and (= (mod ?x302 4) 0) (and (distinct (mod ?x302 100) 0) true)) (= (mod ?x302 400) 0))))
(let ((?x507 (ite (= ?x49 2) (ite $x637 29 28) ?x464)))
(let ((?x137 (ite (< x_day 1) 1 (ite (> x_day ?x507) ?x507 x_day))))
(let ((?x167 (ite (< ?x137 1) 1 (ite (> ?x137 ?x507) ?x507 ?x137))))
(let ((?x91 (ite (= 2 ?x49) (ite $x637 31 31) (ite (= 1 ?x49) (ite $x637 0 0) 0))))
(let ((?x95 (ite (= 4 ?x49) (ite $x637 91 90) (ite (= 3 ?x49) (ite $x637 60 59) ?x91))))
(let ((?x208 (ite (= 6 ?x49) (ite $x637 152 151) (ite (= 5 ?x49) (ite $x637 121 120) ?x95))))
(let ((?x129 (ite (= 8 ?x49) (ite $x637 213 212) (ite (= 7 ?x49) (ite $x637 182 181) ?x208))))
(let ((?x122 (ite (= 10 ?x49) (ite $x637 274 273) (ite (= 9 ?x49) (ite $x637 244 243) ?x129))))
(let ((?x388 (ite (= 12 ?x49) (ite $x637 335 334) (ite (= 11 ?x49) (ite $x637 305 304) ?x122))))
(let ((?x452 (- (+ (* 365 (- ?x302 1)) (div (- ?x302 1) 4)) (div (- ?x302 1) 100))))
(let ((?x684 (- (+ (+ (+ ?x452 (div (- ?x302 1) 400)) ?x388) (- ?x167 1)) 730179)))
(let ((?x460 (+ (+ ?x684 0) 730179)))
(let ((?x191 (mod ?x460 146097)))
(let ((?x22 (div ?x191 36524)))
(let ((?x677 (ite (<= 4 ?x22) 3 ?x22)))
(let ((?x556 (- ?x191 (* ?x677 36524))))
(let ((?x617 (mod ?x556 1461)))
(let ((?x664 (div ?x617 365)))
(let ((?x384 (ite (<= 4 ?x664) 3 ?x664)))
(let ((?x304 (+ (+ (* (div ?x460 146097) 400) (* ?x677 100)) (* (div ?x556 1461) 4))))
(let ((?x176 (+ (+ ?x304 ?x384) 1)))
(let (($x96 (or (and (= (mod ?x176 4) 0) (and (distinct (mod ?x176 100) 0) true)) (= (mod ?x176 400) 0))))
(let ((?x759 (- ?x617 (* ?x384 365))))
(let ((?x382 (ite $x96 31 31)))
(let (($x154 (>= ?x759 ?x382)))
(let ((?x349 (ite $x154 (+ (- ?x759 ?x382) 1) (+ (- ?x759 (ite $x96 0 0)) 1))))
(let ((?x32 (ite $x96 60 59)))
(let (($x707 (>= ?x759 ?x32)))
(let ((?x381 (ite $x96 91 90)))
(let (($x166 (>= ?x759 ?x381)))
(let ((?x11 (ite $x166 (+ (- ?x759 ?x381) 1) (ite $x707 (+ (- ?x759 ?x32) 1) ?x349))))
(let ((?x588 (ite $x96 121 120)))
(let (($x763 (>= ?x759 ?x588)))
(let ((?x65 (ite $x96 152 151)))
(let (($x324 (>= ?x759 ?x65)))
(let ((?x350 (ite $x324 (+ (- ?x759 ?x65) 1) (ite $x763 (+ (- ?x759 ?x588) 1) ?x11))))
(let ((?x700 (ite $x96 182 181)))
(let (($x370 (>= ?x759 ?x700)))
(let ((?x261 (ite $x96 213 212)))
(let (($x290 (>= ?x759 ?x261)))
(let ((?x1015 (ite $x290 (+ (- ?x759 ?x261) 1) (ite $x370 (+ (- ?x759 ?x700) 1) ?x350))))
(let ((?x282 (ite $x96 244 243)))
(let (($x8 (>= ?x759 ?x282)))
(let ((?x164 (ite $x96 274 273)))
(let (($x73 (>= ?x759 ?x164)))
(let ((?x540 (ite $x73 (+ (- ?x759 ?x164) 1) (ite $x8 (+ (- ?x759 ?x282) 1) ?x1015))))
(let ((?x395 (ite $x96 305 304)))
(let (($x418 (>= ?x759 ?x395)))
(let ((?x648 (ite $x96 335 334)))
(let (($x639 (>= ?x759 ?x648)))
(let ((?x506 (ite $x639 (+ (- ?x759 ?x648) 1) (ite $x418 (+ (- ?x759 ?x395) 1) ?x540))))
(let (($x431 (= 0 0)))
(let ((?x386 (ite $x763 5 (ite $x166 4 (ite $x707 3 (ite $x154 2 1))))))
(let ((?x110 (ite $x8 9 (ite $x290 8 (ite $x370 7 (ite $x324 6 ?x386))))))
(let ((?x503 (ite $x431 ?x49 (ite $x639 12 (ite $x418 11 (ite $x73 10 ?x110))))))
(let (($x332 (or (< ?x503 3) (and (= ?x503 3) (<= (ite $x431 ?x167 ?x506) 1)))))
(or (< (ite $x431 ?x302 ?x176) 2023) (and (= (ite $x431 ?x302 ?x176) 2023) $x332))))))))))))))))))))))))))))))))))))))))))))))))))))))))))))))))
(check-sat)
